12606
0 0 1 0 0 0 1 0 1 1 1 0 1 1 1 0 0 1 0 0 
8 8 8 8 8 8 8 12 12 12 12 12 12 2 2 2 2 2 2 2 2 2 2 2 2 2 2 2 2 2 2 2 14 14 14 14 14 6 6 6 6 6 14 6 6 6 14 6 6 6 6 6 6 6 6 6 10 10 10 10 10 10 10 10 10 10 10 10 10 10 10 10 10 9 9 9 9 9 9 6 13 13 13 13 13 13 13 13 13 13 13 13 17 17 17 17 17 17 17 17 
